$instance size is  500
letting capacity be  124157
letting items be new type enum { 
a1,a2,a3,a4,a5,a6,a7,a8,a9,a10,a11,a12,a13,a14,a15,a16,a17,a18,a19,a20,a21,a22,a23,a24,a25,a26,a27,a28,a29,a30,a31,a32,a33,a34,a35,a36,a37,a38,a39,a40,a41,a42,a43,a44,a45,a46,a47,a48,a49,a50,a51,a52,a53,a54,a55,a56,a57,a58,a59,a60,a61,a62,a63,a64,a65,a66,a67,a68,a69,a70,a71,a72,a73,a74,a75,a76,a77,a78,a79,a80,a81,a82,a83,a84,a85,a86,a87,a88,a89,a90,a91,a92,a93,a94,a95,a96,a97,a98,a99,a100,a101,a102,a103,a104,a105,a106,a107,a108,a109,a110,a111,a112,a113,a114,a115,a116,a117,a118,a119,a120,a121,a122,a123,a124,a125,a126,a127,a128,a129,a130,a131,a132,a133,a134,a135,a136,a137,a138,a139,a140,a141,a142,a143,a144,a145,a146,a147,a148,a149,a150,a151,a152,a153,a154,a155,a156,a157,a158,a159,a160,a161,a162,a163,a164,a165,a166,a167,a168,a169,a170,a171,a172,a173,a174,a175,a176,a177,a178,a179,a180,a181,a182,a183,a184,a185,a186,a187,a188,a189,a190,a191,a192,a193,a194,a195,a196,a197,a198,a199,a200,a201,a202,a203,a204,a205,a206,a207,a208,a209,a210,a211,a212,a213,a214,a215,a216,a217,a218,a219,a220,a221,a222,a223,a224,a225,a226,a227,a228,a229,a230,a231,a232,a233,a234,a235,a236,a237,a238,a239,a240,a241,a242,a243,a244,a245,a246,a247,a248,a249,a250,a251,a252,a253,a254,a255,a256,a257,a258,a259,a260,a261,a262,a263,a264,a265,a266,a267,a268,a269,a270,a271,a272,a273,a274,a275,a276,a277,a278,a279,a280,a281,a282,a283,a284,a285,a286,a287,a288,a289,a290,a291,a292,a293,a294,a295,a296,a297,a298,a299,a300,a301,a302,a303,a304,a305,a306,a307,a308,a309,a310,a311,a312,a313,a314,a315,a316,a317,a318,a319,a320,a321,a322,a323,a324,a325,a326,a327,a328,a329,a330,a331,a332,a333,a334,a335,a336,a337,a338,a339,a340,a341,a342,a343,a344,a345,a346,a347,a348,a349,a350,a351,a352,a353,a354,a355,a356,a357,a358,a359,a360,a361,a362,a363,a364,a365,a366,a367,a368,a369,a370,a371,a372,a373,a374,a375,a376,a377,a378,a379,a380,a381,a382,a383,a384,a385,a386,a387,a388,a389,a390,a391,a392,a393,a394,a395,a396,a397,a398,a399,a400,a401,a402,a403,a404,a405,a406,a407,a408,a409,a410,a411,a412,a413,a414,a415,a416,a417,a418,a419,a420,a421,a422,a423,a424,a425,a426,a427,a428,a429,a430,a431,a432,a433,a434,a435,a436,a437,a438,a439,a440,a441,a442,a443,a444,a445,a446,a447,a448,a449,a450,a451,a452,a453,a454,a455,a456,a457,a458,a459,a460,a461,a462,a463,a464,a465,a466,a467,a468,a469,a470,a471,a472,a473,a474,a475,a476,a477,a478,a479,a480,a481,a482,a483,a484,a485,a486,a487,a488,a489,a490,a491,a492,a493,a494,a495,a496,a497,a498,a499,a500
}
letting weight be function (
a1 --> 586,a2 --> 915,a3 --> 156,a4 --> 272,a5 --> 278,a6 --> 629,a7 --> 198,a8 --> 632,a9 --> 435,a10 --> 991,a11 --> 971,a12 --> 15,a13 --> 383,a14 --> 822,a15 --> 83,a16 --> 640,a17 --> 170,a18 --> 470,a19 --> 687,a20 --> 6,a21 --> 286,a22 --> 347,a23 --> 472,a24 --> 564,a25 --> 693,a26 --> 483,a27 --> 404,a28 --> 532,a29 --> 294,a30 --> 917,a31 --> 377,a32 --> 716,a33 --> 80,a34 --> 931,a35 --> 600,a36 --> 217,a37 --> 205,a38 --> 979,a39 --> 683,a40 --> 904,a41 --> 568,a42 --> 986,a43 --> 134,a44 --> 503,a45 --> 63,a46 --> 927,a47 --> 865,a48 --> 913,a49 --> 185,a50 --> 30,a51 --> 939,a52 --> 479,a53 --> 215,a54 --> 409,a55 --> 1000,a56 --> 494,a57 --> 423,a58 --> 560,a59 --> 92,a60 --> 199,a61 --> 420,a62 --> 698,a63 --> 278,a64 --> 394,a65 --> 623,a66 --> 729,a67 --> 309,a68 --> 874,a69 --> 865,a70 --> 538,a71 --> 877,a72 --> 307,a73 --> 285,a74 --> 474,a75 --> 171,a76 --> 390,a77 --> 338,a78 --> 9,a79 --> 20,a80 --> 884,a81 --> 271,a82 --> 754,a83 --> 402,a84 --> 702,a85 --> 925,a86 --> 25,a87 --> 686,a88 --> 547,a89 --> 168,a90 --> 259,a91 --> 166,a92 --> 706,a93 --> 590,a94 --> 449,a95 --> 184,a96 --> 147,a97 --> 781,a98 --> 36,a99 --> 165,a100 --> 361,a101 --> 153,a102 --> 226,a103 --> 807,a104 --> 666,a105 --> 859,a106 --> 767,a107 --> 978,a108 --> 13,a109 --> 698,a110 --> 869,a111 --> 998,a112 --> 770,a113 --> 174,a114 --> 780,a115 --> 434,a116 --> 149,a117 --> 71,a118 --> 89,a119 --> 466,a120 --> 131,a121 --> 546,a122 --> 699,a123 --> 610,a124 --> 587,a125 --> 236,a126 --> 881,a127 --> 161,a128 --> 542,a129 --> 116,a130 --> 21,a131 --> 631,a132 --> 607,a133 --> 532,a134 --> 707,a135 --> 510,a136 --> 52,a137 --> 321,a138 --> 482,a139 --> 483,a140 --> 722,a141 --> 230,a142 --> 457,a143 --> 726,a144 --> 76,a145 --> 180,a146 --> 115,a147 --> 213,a148 --> 555,a149 --> 541,a150 --> 419,a151 --> 493,a152 --> 15,a153 --> 996,a154 --> 864,a155 --> 601,a156 --> 580,a157 --> 678,a158 --> 457,a159 --> 400,a160 --> 909,a161 --> 659,a162 --> 354,a163 --> 778,a164 --> 349,a165 --> 93,a166 --> 405,a167 --> 411,a168 --> 616,a169 --> 966,a170 --> 913,a171 --> 511,a172 --> 326,a173 --> 518,a174 --> 798,a175 --> 395,a176 --> 680,a177 --> 243,a178 --> 102,a179 --> 746,a180 --> 617,a181 --> 855,a182 --> 518,a183 --> 477,a184 --> 613,a185 --> 981,a186 --> 378,a187 --> 233,a188 --> 796,a189 --> 308,a190 --> 419,a191 --> 757,a192 --> 64,a193 --> 674,a194 --> 484,a195 --> 984,a196 --> 154,a197 --> 697,a198 --> 968,a199 --> 695,a200 --> 872,a201 --> 956,a202 --> 454,a203 --> 92,a204 --> 666,a205 --> 522,a206 --> 597,a207 --> 231,a208 --> 728,a209 --> 954,a210 --> 743,a211 --> 785,a212 --> 117,a213 --> 349,a214 --> 961,a215 --> 596,a216 --> 783,a217 --> 399,a218 --> 321,a219 --> 940,a220 --> 235,a221 --> 390,a222 --> 719,a223 --> 976,a224 --> 117,a225 --> 961,a226 --> 708,a227 --> 776,a228 --> 78,a229 --> 33,a230 --> 53,a231 --> 256,a232 --> 459,a233 --> 530,a234 --> 976,a235 --> 452,a236 --> 285,a237 --> 299,a238 --> 389,a239 --> 42,a240 --> 539,a241 --> 601,a242 --> 741,a243 --> 130,a244 --> 856,a245 --> 456,a246 --> 526,a247 --> 824,a248 --> 579,a249 --> 305,a250 --> 534,a251 --> 520,a252 --> 26,a253 --> 716,a254 --> 347,a255 --> 753,a256 --> 85,a257 --> 848,a258 --> 616,a259 --> 707,a260 --> 273,a261 --> 237,a262 --> 370,a263 --> 88,a264 --> 194,a265 --> 841,a266 --> 183,a267 --> 846,a268 --> 831,a269 --> 703,a270 --> 733,a271 --> 922,a272 --> 617,a273 --> 320,a274 --> 297,a275 --> 550,a276 --> 195,a277 --> 246,a278 --> 749,a279 --> 259,a280 --> 579,a281 --> 148,a282 --> 607,a283 --> 551,a284 --> 871,a285 --> 695,a286 --> 504,a287 --> 840,a288 --> 113,a289 --> 207,a290 --> 458,a291 --> 967,a292 --> 579,a293 --> 358,a294 --> 593,a295 --> 222,a296 --> 11,a297 --> 47,a298 --> 59,a299 --> 73,a300 --> 607,a301 --> 936,a302 --> 375,a303 --> 928,a304 --> 794,a305 --> 568,a306 --> 569,a307 --> 259,a308 --> 269,a309 --> 593,a310 --> 284,a311 --> 924,a312 --> 222,a313 --> 966,a314 --> 606,a315 --> 944,a316 --> 412,a317 --> 125,a318 --> 215,a319 --> 582,a320 --> 311,a321 --> 734,a322 --> 353,a323 --> 437,a324 --> 140,a325 --> 563,a326 --> 985,a327 --> 178,a328 --> 895,a329 --> 509,a330 --> 212,a331 --> 87,a332 --> 984,a333 --> 124,a334 --> 370,a335 --> 957,a336 --> 62,a337 --> 799,a338 --> 759,a339 --> 778,a340 --> 950,a341 --> 295,a342 --> 940,a343 --> 83,a344 --> 140,a345 --> 505,a346 --> 753,a347 --> 715,a348 --> 495,a349 --> 408,a350 --> 798,a351 --> 841,a352 --> 161,a353 --> 86,a354 --> 125,a355 --> 886,a356 --> 877,a357 --> 75,a358 --> 666,a359 --> 84,a360 --> 887,a361 --> 820,a362 --> 682,a363 --> 679,a364 --> 935,a365 --> 341,a366 --> 719,a367 --> 943,a368 --> 837,a369 --> 471,a370 --> 41,a371 --> 532,a372 --> 830,a373 --> 10,a374 --> 158,a375 --> 648,a376 --> 733,a377 --> 531,a378 --> 106,a379 --> 128,a380 --> 770,a381 --> 551,a382 --> 71,a383 --> 955,a384 --> 414,a385 --> 630,a386 --> 750,a387 --> 489,a388 --> 980,a389 --> 560,a390 --> 180,a391 --> 708,a392 --> 650,a393 --> 227,a394 --> 462,a395 --> 674,a396 --> 925,a397 --> 362,a398 --> 964,a399 --> 160,a400 --> 24,a401 --> 190,a402 --> 713,a403 --> 120,a404 --> 525,a405 --> 497,a406 --> 976,a407 --> 836,a408 --> 785,a409 --> 830,a410 --> 472,a411 --> 696,a412 --> 20,a413 --> 794,a414 --> 401,a415 --> 355,a416 --> 782,a417 --> 109,a418 --> 605,a419 --> 446,a420 --> 563,a421 --> 473,a422 --> 583,a423 --> 290,a424 --> 543,a425 --> 969,a426 --> 942,a427 --> 30,a428 --> 867,a429 --> 803,a430 --> 762,a431 --> 295,a432 --> 45,a433 --> 246,a434 --> 414,a435 --> 558,a436 --> 19,a437 --> 780,a438 --> 284,a439 --> 693,a440 --> 344,a441 --> 993,a442 --> 723,a443 --> 329,a444 --> 989,a445 --> 849,a446 --> 268,a447 --> 881,a448 --> 313,a449 --> 573,a450 --> 792,a451 --> 380,a452 --> 217,a453 --> 790,a454 --> 779,a455 --> 159,a456 --> 368,a457 --> 344,a458 --> 740,a459 --> 509,a460 --> 287,a461 --> 112,a462 --> 194,a463 --> 628,a464 --> 438,a465 --> 582,a466 --> 96,a467 --> 318,a468 --> 144,a469 --> 572,a470 --> 553,a471 --> 524,a472 --> 275,a473 --> 236,a474 --> 20,a475 --> 573,a476 --> 541,a477 --> 756,a478 --> 904,a479 --> 229,a480 --> 200,a481 --> 213,a482 --> 273,a483 --> 542,a484 --> 542,a485 --> 368,a486 --> 545,a487 --> 386,a488 --> 964,a489 --> 919,a490 --> 135,a491 --> 413,a492 --> 3,a493 --> 178,a494 --> 859,a495 --> 583,a496 --> 410,a497 --> 446,a498 --> 311,a499 --> 336,a500 --> 861
)
letting gain be function (
a1 --> 942,a2 --> 1120,a3 --> 516,a4 --> 671,a5 --> 678,a6 --> 970,a7 --> 578,a8 --> 972,a9 --> 830,a10 --> 1151,a11 --> 1143,a12 --> 162,a13 --> 784,a14 --> 1077,a15 --> 380,a16 --> 977,a17 --> 537,a18 --> 858,a19 --> 1005,a20 --> 103,a21 --> 687,a22 --> 750,a23 --> 860,a24 --> 928,a25 --> 1009,a26 --> 868,a27 --> 803,a28 --> 905,a29 --> 695,a30 --> 1120,a31 --> 779,a32 --> 1022,a33 --> 373,a34 --> 1126,a35 --> 952,a36 --> 604,a37 --> 588,a38 --> 1146,a39 --> 1003,a40 --> 1115,a41 --> 930,a42 --> 1149,a43 --> 479,a44 --> 884,a45 --> 332,a46 --> 1125,a47 --> 1097,a48 --> 1119,a49 --> 560,a50 --> 230,a51 --> 1130,a52 --> 865,a53 --> 601,a54 --> 807,a55 --> 1154,a56 --> 877,a57 --> 820,a58 --> 925,a59 --> 399,a60 --> 579,a61 --> 817,a62 --> 1012,a63 --> 678,a64 --> 794,a65 --> 966,a66 --> 1029,a67 --> 711,a68 --> 1101,a69 --> 1097,a70 --> 909,a71 --> 1103,a72 --> 709,a73 --> 685,a74 --> 861,a75 --> 539,a76 --> 791,a77 --> 741,a78 --> 126,a79 --> 188,a80 --> 1106,a81 --> 670,a82 --> 1042,a83 --> 801,a84 --> 1014,a85 --> 1124,a86 --> 210,a87 --> 1005,a88 --> 916,a89 --> 534,a90 --> 656,a91 --> 531,a92 --> 1016,a93 --> 945,a94 --> 841,a95 --> 558,a96 --> 501,a97 --> 1057,a98 --> 251,a99 --> 530,a100 --> 764,a101 --> 511,a102 --> 615,a103 --> 1070,a104 --> 993,a105 --> 1095,a106 --> 1049,a107 --> 1146,a108 --> 151,a109 --> 1012,a110 --> 1099,a111 --> 1153,a112 --> 1051,a113 --> 543,a114 --> 1056,a115 --> 829,a116 --> 504,a117 --> 352,a118 --> 393,a119 --> 855,a120 --> 474,a121 --> 915,a122 --> 1012,a123 --> 958,a124 --> 943,a125 --> 628,a126 --> 1105,a127 --> 524,a128 --> 912,a129 --> 447,a130 --> 192,a131 --> 972,a132 --> 956,a133 --> 905,a134 --> 1017,a135 --> 889,a136 --> 302,a137 --> 724,a138 --> 868,a139 --> 868,a140 --> 1025,a141 --> 620,a142 --> 848,a143 --> 1027,a144 --> 364,a145 --> 552,a146 --> 445,a147 --> 598,a148 --> 921,a149 --> 911,a150 --> 816,a151 --> 876,a152 --> 162,a153 --> 1153,a154 --> 1097,a155 --> 952,a156 --> 938,a157 --> 1000,a158 --> 848,a159 --> 800,a160 --> 1117,a161 --> 989,a162 --> 757,a163 --> 1055,a164 --> 752,a165 --> 401,a166 --> 804,a167 --> 809,a168 --> 962,a169 --> 1141,a170 --> 1119,a171 --> 890,a172 --> 729,a173 --> 895,a174 --> 1065,a175 --> 795,a176 --> 1001,a177 --> 636,a178 --> 420,a179 --> 1038,a180 --> 963,a181 --> 1093,a182 --> 895,a183 --> 864,a184 --> 960,a185 --> 1147,a186 --> 780,a187 --> 624,a188 --> 1064,a189 --> 710,a190 --> 816,a191 --> 1044,a192 --> 334,a193 --> 998,a194 --> 869,a195 --> 1148,a196 --> 513,a197 --> 1011,a198 --> 1142,a199 --> 1010,a200 --> 1101,a201 --> 1137,a202 --> 845,a203 --> 399,a204 --> 993,a205 --> 898,a206 --> 950,a207 --> 622,a208 --> 1028,a209 --> 1136,a210 --> 1037,a211 --> 1059,a212 --> 449,a213 --> 752,a214 --> 1139,a215 --> 949,a216 --> 1058,a217 --> 799,a218 --> 724,a219 --> 1130,a220 --> 627,a221 --> 791,a222 --> 1023,a223 --> 1145,a224 --> 449,a225 --> 1139,a226 --> 1017,a227 --> 1054,a228 --> 368,a229 --> 241,a230 --> 304,a231 --> 652,a232 --> 849,a233 --> 904,a234 --> 1145,a235 --> 844,a236 --> 685,a237 --> 701,a238 --> 790,a239 --> 271,a240 --> 910,a241 --> 952,a242 --> 1036,a243 --> 472,a244 --> 1093,a245 --> 847,a246 --> 901,a247 --> 1078,a248 --> 938,a249 --> 707,a250 --> 906,a251 --> 896,a252 --> 214,a253 --> 1022,a254 --> 750,a255 --> 1042,a256 --> 384,a257 --> 1089,a258 --> 962,a259 --> 1017,a260 --> 672,a261 --> 629,a262 --> 772,a263 --> 391,a264 --> 572,a265 --> 1086,a266 --> 557,a267 --> 1088,a268 --> 1081,a269 --> 1014,a270 --> 1031,a271 --> 1123,a272 --> 963,a273 --> 723,a274 --> 699,a275 --> 918,a276 --> 574,a277 --> 640,a278 --> 1040,a279 --> 656,a280 --> 938,a281 --> 503,a282 --> 956,a283 --> 919,a284 --> 1100,a285 --> 1010,a286 --> 884,a287 --> 1086,a288 --> 441,a289 --> 590,a290 --> 849,a291 --> 1141,a292 --> 938,a293 --> 761,a294 --> 947,a295 --> 610,a296 --> 139,a297 --> 287,a298 --> 321,a299 --> 356,a300 --> 956,a301 --> 1128,a302 --> 777,a303 --> 1125,a304 --> 1063,a305 --> 930,a306 --> 931,a307 --> 656,a308 --> 667,a309 --> 947,a310 --> 684,a311 --> 1123,a312 --> 610,a313 --> 1141,a314 --> 956,a315 --> 1132,a316 --> 810,a317 --> 463,a318 --> 601,a319 --> 940,a320 --> 714,a321 --> 1032,a322 --> 756,a323 --> 831,a324 --> 490,a325 --> 927,a326 --> 1148,a327 --> 549,a328 --> 1111,a329 --> 888,a330 --> 597,a331 --> 388,a332 --> 1148,a333 --> 462,a334 --> 772,a335 --> 1137,a336 --> 329,a337 --> 1066,a338 --> 1045,a339 --> 1055,a340 --> 1134,a341 --> 696,a342 --> 1130,a343 --> 380,a344 --> 490,a345 --> 885,a346 --> 1042,a347 --> 1021,a348 --> 878,a349 --> 807,a350 --> 1065,a351 --> 1086,a352 --> 524,a353 --> 386,a354 --> 463,a355 --> 1107,a356 --> 1103,a357 --> 361,a358 --> 993,a359 --> 382,a360 --> 1107,a361 --> 1076,a362 --> 1002,a363 --> 1001,a364 --> 1128,a365 --> 744,a366 --> 1023,a367 --> 1131,a368 --> 1084,a369 --> 859,a370 --> 268,a371 --> 905,a372 --> 1081,a373 --> 133,a374 --> 519,a375 --> 982,a376 --> 1031,a377 --> 904,a378 --> 428,a379 --> 469,a380 --> 1051,a381 --> 919,a382 --> 352,a383 --> 1136,a384 --> 812,a385 --> 971,a386 --> 1040,a387 --> 873,a388 --> 1146,a389 --> 925,a390 --> 552,a391 --> 1017,a392 --> 983,a393 --> 616,a394 --> 852,a395 --> 998,a396 --> 1124,a397 --> 765,a398 --> 1140,a399 --> 522,a400 --> 205,a401 --> 567,a402 --> 1020,a403 --> 454,a404 --> 900,a405 --> 879,a406 --> 1145,a407 --> 1084,a408 --> 1059,a409 --> 1081,a410 --> 860,a411 --> 1010,a412 --> 188,a413 --> 1063,a414 --> 800,a415 --> 758,a416 --> 1057,a417 --> 434,a418 --> 955,a419 --> 839,a420 --> 927,a421 --> 861,a422 --> 940,a423 --> 691,a424 --> 913,a425 --> 1142,a426 --> 1131,a427 --> 230,a428 --> 1098,a429 --> 1068,a430 --> 1047,a431 --> 696,a432 --> 281,a433 --> 640,a434 --> 812,a435 --> 923,a436 --> 183,a437 --> 1056,a438 --> 684,a439 --> 1009,a440 --> 747,a441 --> 1151,a442 --> 1026,a443 --> 732,a444 --> 1150,a445 --> 1090,a446 --> 666,a447 --> 1105,a448 --> 716,a449 --> 934,a450 --> 1062,a451 --> 781,a452 --> 604,a453 --> 1061,a454 --> 1056,a455 --> 520,a456 --> 770,a457 --> 747,a458 --> 1035,a459 --> 888,a460 --> 688,a461 --> 439,a462 --> 572,a463 --> 970,a464 --> 832,a465 --> 940,a466 --> 408,a467 --> 721,a468 --> 496,a469 --> 933,a470 --> 920,a471 --> 899,a472 --> 674,a473 --> 628,a474 --> 188,a475 --> 934,a476 --> 911,a477 --> 1044,a478 --> 1115,a479 --> 619,a480 --> 581,a481 --> 598,a482 --> 672,a483 --> 912,a484 --> 912,a485 --> 770,a486 --> 914,a487 --> 787,a488 --> 1140,a489 --> 1121,a490 --> 481,a491 --> 811,a492 --> 73,a493 --> 549,a494 --> 1095,a495 --> 940,a496 --> 808,a497 --> 839,a498 --> 714,a499 --> 739,a500 --> 1095
)
